Minimize
 obj: 9 y(0) + 8 y(2) + 8 y(3) - y(4) + 7 y(9) - 2 y(10) - y(15) + 6 y(17)
      - 4 y(18) - 142 x(0) + 10 y(1) + 10 y(5) - 10 y(7) - 2 y(11) - 8 y(12)
      + 10 y(14) - y(16) + 9 y(19) + 173 x(1) - 6 y(8) - 131 x(2) - 10 y(6)
      - 10 y(13) + 143 x(3) - 9 x(4) + 175 x(5) + 181 x(6) + 127 x(7)
      - 129 x(8) - 62 x(9) - 7 x(10) - 60 x(11) - 101 x(12) - 27 x(13)
      + 142 x(14) - 180 x(15) + 180 x(16) - 114 x(17) - 185 x(18) + 197 x(19)
Subject To
 c1:  17 y(0) + 19 y(2) + 10 y(3) + 12 y(4) + 5 y(9) + 9 y(10) + 20 y(15)
      + 16 y(17) + 10 y(18) + 11 x(0) <= 86
 c2:  14 y(3) + 11 y(15) + 5 y(1) + 5 y(5) + 16 y(7) + y(11) + 19 y(12)
      + 7 y(14) + 18 y(16) + 3 y(19) + 5 x(1) <= 73
 c3:  14 y(4) + 17 y(9) + 9 y(18) + 15 y(1) + 18 y(5) + 4 y(7) + 4 y(11)
      + 11 y(14) + 7 y(16) + 16 y(8) + 14 x(2) <= 55
 c4:  19 y(0) + 15 y(2) + 18 y(4) + y(15) + 16 y(18) + 4 y(1) + 11 y(12)
      + 10 y(16) + 13 y(19) + 8 y(6) + 2 y(13) + 16 x(3) <= 95
 c5:  17 y(2) - y(3) + 2 y(4) + 11 y(15) + 17 y(18) + 15 y(5) + 8 y(7)
      + 18 y(14) + 7 x(4) <= 88
 c6:  11 y(0) + 8 y(3) + 16 y(9) + 5 y(10) + 11 y(17) + 16 y(18) + 7 y(7)
      + 10 y(11) + 14 y(12) + 5 y(14) + 18 y(8) + 16 x(5) <= 76
 c7:  5 y(0) + 2 y(4) + 10 y(9) + 14 y(10) + 4 y(1) + 13 y(7) + 8 y(11)
      + 2 y(12) + 13 y(14) + 15 y(16) - y(6) + 18 y(13) + 2 x(6) <= 67
 c8:  15 y(4) + 17 y(15) + 9 y(18) + 18 y(1) + 17 y(5) + 12 y(11) + 17 y(14)
      + 6 y(19) + 11 y(13) + 2 x(7) <= 60
 c9:  5 y(3) + 10 y(9) + 4 y(17) - y(18) + 14 y(5) + 10 y(11) + 3 y(19)
      + 16 y(6) + 8 x(8) <= 55
 c10: 12 y(4) + 15 y(9) + 4 y(10) + 20 y(15) + 20 y(18) - y(5) + 14 y(19)
      + 8 x(9) <= 81
 c11: 13 y(2) + 13 y(18) + 10 y(1) + 20 y(5) + 11 y(19) + 10 x(10) <= 75
 c12: 19 y(3) + 15 y(9) + 6 y(10) + 15 y(17) + 11 y(18) + 17 y(1) + 6 y(7)
      + 13 y(14) - y(16) + 3 y(8) + 18 x(11) <= 83
 c13: y(0) + 4 y(2) + 15 y(3) + 13 y(9) + 2 y(15) + 20 y(1) + 19 y(7)
      + 12 y(12) + 17 y(19) + 9 y(8) + 11 x(12) <= 83
 c14: 18 y(3) + 11 y(9) + 5 y(10) + 11 y(15) + 4 y(17) + y(1) + y(5) + 12 y(7)
      + 20 y(14) + 20 x(13) <= 59
 c15: 11 y(2) + 18 y(3) + 4 y(9) - y(10) + 16 y(1) + 10 y(5) + 5 y(11)
      + 3 y(12) + y(8) + 18 x(14) <= 73
 c16: 17 y(4) + y(7) + 7 y(12) + 12 y(14) + 10 y(6) + 12 x(15) <= 92
 c17: 14 y(0) + 5 y(3) - y(9) + 12 y(17) + y(1) + 3 y(7) + y(12) + 5 y(14)
      + 18 y(16) + 18 y(8) + 14 y(6) + 2 x(16) <= 80
 c18: 11 y(9) + 3 y(15) + 12 y(18) + 14 y(1) - y(12) + 17 y(19) + 12 x(17)
      <= 57
 c19: 6 y(0) + 18 y(4) + 19 y(9) + 6 y(15) + 12 y(18) + 9 y(7) + 18 y(11)
      + 11 y(16) + 13 y(13) + 8 x(18) <= 68
 c20: 5 y(2) + 16 y(3) + 15 y(4) + 7 y(9) + 8 y(15) + 16 y(18) + 9 y(1)
      + 8 y(11) + 15 y(13) + 3 x(19) <= 54
 c21: 11 y(0) + 16 y(3) + 19 y(9) + 5 y(15) + 20 y(18) + 6 y(5) + 5 y(16)
      + 9 y(6) <= 92
 c22: 16 y(15) + 20 y(18) + 3 y(1) + 13 y(7) + 7 y(14) + 4 y(16) + 19 y(19)
      + 10 y(8) - y(13) <= 87
 c23: 18 y(2) - y(3) + 8 y(4) + 17 y(9) + 11 y(15) + y(12) + 18 y(14) + 2 y(16)
      + 18 y(13) <= 61
 c24: 12 y(10) + 7 y(15) + 3 y(7) + 18 y(11) + 15 y(14) + 11 y(16) + 18 y(6)
      <= 57
 c25: 18 y(0) + 14 y(3) + 16 y(4) + 2 y(10) + 13 y(15) + 15 y(17) + 17 y(11)
      + 9 y(12) + 3 y(14) + 8 y(16) + 19 y(6) <= 92
 c26: 11 y(0) + y(2) - y(1) + 10 y(5) - y(7) + 4 y(11) + 9 y(14) + 3 y(16)
      <= 68
 c27: - y(2) + 10 y(4) + 3 y(10) + 10 y(15) + 8 y(17) + 3 y(18) + 6 y(1)
      + 7 y(7) + 4 y(14) + 15 y(16) + 6 y(8) + 19 y(6) + 7 y(13) <= 95
 c28: 14 y(2) + 13 y(4) + 11 y(9) + 4 y(10) + 12 y(15) + 10 y(5) + 11 y(7)
      + 5 y(14) + 20 y(8) + 12 y(6) <= 98
 c29: 14 y(10) + 19 y(15) + 6 y(5) + 19 y(8) + 10 y(6) - y(13) <= 100
 c30: y(3) + 2 y(4) + 8 y(9) + 20 y(1) + 12 y(5) + 10 y(7) + 5 y(11) + 20 y(19)
      + 16 y(8) <= 84
 c31: y(3) + 13 y(4) + 12 y(15) + 12 y(18) + 13 y(12) + 9 y(14) + 19 y(16)
      + 8 y(13) <= 52
 c32: 6 y(0) + 18 y(2) + 13 y(3) + 11 y(17) + 3 y(5) + 16 y(7) + 8 y(12)
      + 5 y(16) + 2 y(8) <= 59
 c33: 6 y(0) + y(2) + 10 y(9) + 18 y(18) + 3 y(1) + 6 y(5) + 7 y(12) + 13 y(14)
      + 13 y(19) - y(8) + 3 y(6) <= 56
 c34: 10 y(9) + 4 y(10) + 2 y(15) + 13 y(7) + 17 y(14) + y(16) - y(19)
      + 19 y(6) <= 57
 c35: y(3) - y(4) + 11 y(9) + 17 y(10) + y(15) + y(17) + 8 y(18) + 10 y(5)
      + 5 y(7) + 13 y(16) + 7 y(6) <= 53
 c36: 18 y(18) - y(11) + 7 y(19) + 12 y(6) <= 94
 c37: 5 y(2) + 16 y(3) + 6 y(4) + 17 y(9) + 17 y(10) + 14 y(15) + 18 y(1)
      + 3 y(14) + 8 y(19) + 9 y(13) <= 57
 c38: y(2) + 16 y(3) + 19 y(4) + 14 y(9) + 3 y(10) + 6 y(7) + 4 y(11)
      + 12 y(12) + 19 y(19) + 3 y(8) <= 96
 c39: 8 y(0) + 6 y(3) + 20 y(15) + 3 y(17) + 6 y(1) + 3 y(5) + 7 y(12)
      + 11 y(14) + 19 y(13) <= 53
 c40: x(0) + x(1) + x(2) + x(3) + x(4) + x(5) + x(6) + x(7) + x(8) + x(9)
      + x(10) + x(11) + x(12) + x(13) + x(14) + x(15) + x(16) + x(17) + x(18)
      + x(19) <= 6
 c41: - 3 y(0) - 9 y(2) + 9 y(3) + 9 y(4) - 6 y(9) + 4 y(10) + 6 y(15)
      + 7 y(17) + 7 y(18) - 190 x(0) - 5 y(1) + y(5) + 6 y(7) + 6 y(11)
      - 6 y(12) + 6 y(14) + 4 y(16) + 10 y(19) + 143 x(1) + 5 y(8) - 174 x(2)
      - 7 y(6) + 2 y(13) - 161 x(3) + 167 x(4) + 36 x(5) + 183 x(6) - 135 x(7)
      + 181 x(8) - 18 x(9) + 134 x(10) - 161 x(11) - 46 x(12) - 197 x(13)
      + 182 x(14) + 73 x(15) + 105 x(16) + 90 x(17) + 104 x(19) = 0
Bounds
 0 <= x(0) <= 1
 0 <= x(1) <= 1
 0 <= x(2) <= 1
 0 <= x(3) <= 1
 0 <= x(4) <= 1
 0 <= x(5) <= 1
 0 <= x(6) <= 1
 0 <= x(7) <= 1
 0 <= x(8) <= 1
 0 <= x(9) <= 1
 0 <= x(10) <= 1
 0 <= x(11) <= 1
 0 <= x(12) <= 1
 0 <= x(13) <= 1
 0 <= x(14) <= 1
 0 <= x(15) <= 1
 0 <= x(16) <= 1
 0 <= x(17) <= 1
 0 <= x(18) <= 1
 0 <= x(19) <= 1
Binaries
 x(0)  x(1)  x(2)  x(3)  x(4)  x(5)  x(6)  x(7)  x(8)  x(9)  x(10)  x(11) 
 x(12)  x(13)  x(14)  x(15)  x(16)  x(17)  x(18)  x(19) 
End
